Minimize
 Cost:   LoadFunction 
Subject To
Coverage.1: f_1_11 + f_1_21 + f_1_7 + f_1_26 + f_1_2 + f_1_17 + f_1_22 + f_1_1 + f_1_18 + f_1_0 + f_1_23 + f_1_16 + f_1_13 + f_1_29 + f_1_6 + f_1_27 + f_1_25 + f_1_28 + f_1_3 + f_1_9 + f_1_12 + f_1_14 + f_1_15 + f_1_20 + f_1_8 + f_1_4 + f_1_24 + f_1_10 + f_1_19 + f_1_5  = 1
Coverage.2:  + f_2_11 + f_2_21 + f_2_7 + f_2_26 + f_2_2 + f_2_17 + f_2_22 + f_2_1 + f_2_18 + f_2_0 + f_2_23 + f_2_16 + f_2_13 + f_2_29 + f_2_6 + f_2_27 + f_2_25 + f_2_28 + f_2_3 + f_2_9 + f_2_12 + f_2_14 + f_2_15 + f_2_20 + f_2_8 + f_2_4 + f_2_24 + f_2_10 + f_2_19 + f_2_5  = 1
ProcLoad.M3: Load.M3  - 50 f_2_6 - 50 f_2_24 - 50 f_2_21 - 50 f_2_14 - 50 f_2_3 - 50 f_2_19 - 50 f_2_29 - 50 f_2_27 - 50 f_2_13 - 50 f_2_4 - 50 f_2_5 - 50 f_2_1 - 50 f_2_15 - 50 f_2_10 - 50 f_2_17 - 50 f_2_20 - 50 f_2_7 - 50 f_2_0 - 50 f_2_18 - 50 f_2_11 - 50 f_2_28 - 50 f_2_22 - 50 f_2_12 - 50 f_2_23 - 50 f_2_8 - 50 f_2_26 - 50 f_2_9 - 50 f_2_25 - 50 f_2_2 - 50 f_2_16 = 0
ProcLoad.M5: Load.M5  - 50 f_1_7 - 50 f_2_28 - 50 f_2_24 - 50 f_2_27 - 50 f_2_4 - 50 f_1_0 - 50 f_2_8 - 50 f_2_17 - 50 f_1_23 - 50 f_1_14 - 50 f_1_3 - 50 f_1_11 = 0
ProcLoad.M12: Load.M12  - 50 f_2_11 - 50 f_2_6 - 50 f_2_21 - 50 f_1_25 - 50 f_2_12 - 50 f_2_4 - 50 f_1_1 - 50 f_1_28 - 50 f_1_17 - 50 f_1_11 = 0
ProcLoad.M10: Load.M10  - 50 f_1_24 - 50 f_1_5 - 50 f_2_8 - 50 f_1_16 - 50 f_2_1 - 50 f_2_26 - 50 f_2_9 - 50 f_1_23 - 50 f_2_20 - 50 f_1_9 = 0
ProcLoad.M4: Load.M4  - 50 f_2_18 - 50 f_1_8 - 50 f_1_12 - 50 f_2_27 - 50 f_1_0 - 50 f_2_23 - 50 f_1_21 - 50 f_2_15 - 50 f_2_25 - 50 f_1_6 = 0
ProcLoad.M11: Load.M11  - 50 f_1_19 - 50 f_1_22 - 50 f_2_12 - 50 f_2_3 - 50 f_1_29 - 50 f_1_5 - 50 f_1_21 - 50 f_1_28 - 50 f_2_15 - 50 f_2_10 - 50 f_2_9 - 50 f_2_7 = 0
ProcLoad.M1: Load.M1  - 50 f_2_6 - 50 f_1_13 - 50 f_2_19 - 50 f_1_2 - 50 f_1_1 - 50 f_2_26 - 50 f_1_10 - 50 f_2_25 - 50 f_1_6 - 50 f_2_2 - 50 f_1_9 - 50 f_2_0 = 0
ProcLoad.M8: Load.M8  - 50 f_2_24 - 50 f_1_13 - 50 f_2_19 - 50 f_2_29 - 50 f_1_29 - 50 f_1_4 - 50 f_1_27 - 50 f_1_14 - 50 f_2_7 - 50 f_2_16 = 0
ProcLoad.M7: Load.M7  - 50 f_2_18 - 50 f_2_11 - 50 f_1_18 - 50 f_2_14 - 50 f_2_22 - 50 f_1_8 - 50 f_1_24 - 50 f_1_26 - 50 f_1_4 - 50 f_2_20 - 50 f_2_16 - 50 f_1_17 = 0
ProcLoad.M2: Load.M2  - 50 f_1_22 - 50 f_2_28 - 50 f_1_18 - 50 f_2_22 - 50 f_1_20 - 50 f_2_5 - 50 f_1_10 - 50 f_2_10 - 50 f_2_2 - 50 f_1_3 = 0
ProcLoad.M9: Load.M9  - 50 f_2_21 - 50 f_1_25 - 50 f_1_20 - 50 f_1_12 - 50 f_2_29 - 50 f_2_13 - 50 f_2_5 - 50 f_2_23 - 50 f_1_16 - 50 f_2_1 - 50 f_1_15 - 50 f_1_27 = 0
ProcLoad.M6: Load.M6  - 50 f_1_19 - 50 f_1_7 - 50 f_2_14 - 50 f_2_3 - 50 f_2_13 - 50 f_1_26 - 50 f_1_2 - 50 f_1_15 - 50 f_2_17 - 50 f_2_0 = 0
ProcLoadBound.M3: Load.M3 <= 100
ProcLoadBound.M5: Load.M5 <= 100
ProcLoadBound.M12: Load.M12 <= 100
ProcLoadBound.M10: Load.M10 <= 100
ProcLoadBound.M4: Load.M4 <= 100
ProcLoadBound.M11: Load.M11 <= 100
ProcLoadBound.M1: Load.M1 <= 100
ProcLoadBound.M8: Load.M8 <= 100
ProcLoadBound.M7: Load.M7 <= 100
ProcLoadBound.M2: Load.M2 <= 100
ProcLoadBound.M9: Load.M9 <= 100
ProcLoadBound.M6: Load.M6 <= 100
MaxProcLoadBound.M3: Load.M3 - LoadFunction <= 0
MaxProcLoadBound.M5: Load.M5 - LoadFunction <= 0
MaxProcLoadBound.M12: Load.M12 - LoadFunction <= 0
MaxProcLoadBound.M10: Load.M10 - LoadFunction <= 0
MaxProcLoadBound.M4: Load.M4 - LoadFunction <= 0
MaxProcLoadBound.M11: Load.M11 - LoadFunction <= 0
MaxProcLoadBound.M1: Load.M1 - LoadFunction <= 0
MaxProcLoadBound.M8: Load.M8 - LoadFunction <= 0
MaxProcLoadBound.M7: Load.M7 - LoadFunction <= 0
MaxProcLoadBound.M2: Load.M2 - LoadFunction <= 0
MaxProcLoadBound.M9: Load.M9 - LoadFunction <= 0
MaxProcLoadBound.M6: Load.M6 - LoadFunction <= 0
Bounds
 0 <= f_1_11 <= 1
 0 <= f_1_21 <= 1
 0 <= f_1_7 <= 1
 0 <= f_1_26 <= 1
 0 <= f_1_2 <= 1
 0 <= f_1_17 <= 1
 0 <= f_1_22 <= 1
 0 <= f_1_1 <= 1
 0 <= f_1_18 <= 1
 0 <= f_1_0 <= 1
 0 <= f_1_23 <= 1
 0 <= f_1_16 <= 1
 0 <= f_1_13 <= 1
 0 <= f_1_29 <= 1
 0 <= f_1_6 <= 1
 0 <= f_1_27 <= 1
 0 <= f_1_25 <= 1
 0 <= f_1_28 <= 1
 0 <= f_1_3 <= 1
 0 <= f_1_9 <= 1
 0 <= f_1_12 <= 1
 0 <= f_1_14 <= 1
 0 <= f_1_15 <= 1
 0 <= f_1_20 <= 1
 0 <= f_1_8 <= 1
 0 <= f_1_4 <= 1
 0 <= f_1_24 <= 1
 0 <= f_1_10 <= 1
 0 <= f_1_19 <= 1
 0 <= f_1_5 <= 1
 0 <= f_2_11 <= 1
 0 <= f_2_21 <= 1
 0 <= f_2_7 <= 1
 0 <= f_2_26 <= 1
 0 <= f_2_2 <= 1
 0 <= f_2_17 <= 1
 0 <= f_2_22 <= 1
 0 <= f_2_1 <= 1
 0 <= f_2_18 <= 1
 0 <= f_2_0 <= 1
 0 <= f_2_23 <= 1
 0 <= f_2_16 <= 1
 0 <= f_2_13 <= 1
 0 <= f_2_29 <= 1
 0 <= f_2_6 <= 1
 0 <= f_2_27 <= 1
 0 <= f_2_25 <= 1
 0 <= f_2_28 <= 1
 0 <= f_2_3 <= 1
 0 <= f_2_9 <= 1
 0 <= f_2_12 <= 1
 0 <= f_2_14 <= 1
 0 <= f_2_15 <= 1
 0 <= f_2_20 <= 1
 0 <= f_2_8 <= 1
 0 <= f_2_4 <= 1
 0 <= f_2_24 <= 1
 0 <= f_2_10 <= 1
 0 <= f_2_19 <= 1
 0 <= f_2_5 <= 1
End
